# Solution for model r5_t18_m0_0 Batch Number: 4
# Finished Task: 18 / 18
# Makespan: 485.0, Total Distance: 460.0, Total Time: 0.9954
# R O S F Batch
0 0 5 0.0 0.0 -1
1 1 14 0.0 0.0 -1
2 2 20 0.0 0.0 -1
3 3 21 0.0 0.0 -1
4 4 19 0.0 0.0 -1
5 0 10 358.0 379.0 0
6 4 -1 371.0 401.0 3
7 3 -1 398.0 426.0 2
8 2 16 87.0 118.0 0
9 1 18 107.0 146.0 0
10 0 -1 392.0 431.0 2
11 4 6 260.0 298.0 0
12 1 -1 396.0 432.0 3
13 1 12 298.0 337.0 1
14 1 9 66.0 97.0 0
15 2 -1 455.0 485.0 3
16 2 17 351.0 379.0 1
17 2 15 407.0 440.0 2
18 1 22 165.0 188.0 0
19 4 11 202.0 235.0 0
20 2 8 27.0 60.0 0
21 3 7 51.0 81.0 0
22 1 13 241.0 274.0 1
